Results/Experiment 1 Results/New Benchmark/RES_40/output_p1_0.00_p2_0.00_n_40_19.txt
solutions: 5184 nodes: 9418  modelTime: 118  solveTime: 143  totalTime: 270  modelSize: 7389  readTime: 9 matchingSize: 20
